Maximize
  450 x_personal_license + 1200 x_commercial_license
Subject To
  c1: 550 x_personal_license + 2000 x_commercial_license <= 400000
  c2: x_personal_license + x_commercial_license <= 300
Integer
  x_personal_license x_commercial_license
End